
Gurobi 9.0.3 (linux64) logging started Wed May 29 20:41:19 2024

Gurobi Optimizer version 9.0.3 build v9.0.3rc0 (linux64)
Optimize a model with 444 rows, 292 columns and 1476 nonzeros
Model fingerprint: 0xf22cc19e
Variable types: 170 continuous, 122 integer (122 binary)
Coefficient statistics:
  Matrix range     [1e+00, 1e+00]
  Objective range  [9e-04, 6e-01]
  Bounds range     [1e+00, 1e+00]
  RHS range        [1e+00, 1e+00]
Found heuristic solution: objective 0.6678009
Presolve removed 17 rows and 17 columns
Presolve time: 0.00s
Presolved: 427 rows, 275 columns, 1452 nonzeros
Extracted 310 lazy constraints
Variable types: 160 continuous, 115 integer (115 binary)

Root relaxation: objective 2.458181e+00, 0 iterations, 0.00 seconds

    Nodes    |    Current Node    |     Objective Bounds      |     Work
 Expl Unexpl |  Obj  Depth IntInf | Incumbent    BestBd   Gap | It/Node Time

*    0     0               0       2.4483140    2.44831  0.00%     -    0s

Cutting planes:
  Lazy constraints: 21

Explored 0 nodes (49 simplex iterations) in 0.01 seconds
Thread count was 8 (of 8 available processors)

Solution count 2: 2.44831 0.667801 

Optimal solution found (tolerance 0.00e+00)
Best objective 2.448314000000e+00, best bound 2.448314000000e+00, gap 0.0000%

User-callback calls 51, time in user-callback 0.00 sec

Gurobi 9.0.3 (linux64) logging started Wed May 29 20:42:57 2024

Gurobi Optimizer version 9.0.3 build v9.0.3rc0 (linux64)
Optimize a model with 444 rows, 292 columns and 1476 nonzeros
Model fingerprint: 0xf22cc19e
Variable types: 170 continuous, 122 integer (122 binary)
Coefficient statistics:
  Matrix range     [1e+00, 1e+00]
  Objective range  [9e-04, 6e-01]
  Bounds range     [1e+00, 1e+00]
  RHS range        [1e+00, 1e+00]
Found heuristic solution: objective 0.6678009
Presolve removed 17 rows and 17 columns
Presolve time: 0.00s
Presolved: 427 rows, 275 columns, 1452 nonzeros
Extracted 310 lazy constraints
Variable types: 160 continuous, 115 integer (115 binary)

Root relaxation: objective 2.458181e+00, 0 iterations, 0.00 seconds

    Nodes    |    Current Node    |     Objective Bounds      |     Work
 Expl Unexpl |  Obj  Depth IntInf | Incumbent    BestBd   Gap | It/Node Time

*    0     0               0       2.4483140    2.44831  0.00%     -    0s

Cutting planes:
  Lazy constraints: 21

Explored 0 nodes (49 simplex iterations) in 0.01 seconds
Thread count was 8 (of 8 available processors)

Solution count 2: 2.44831 0.667801 

Optimal solution found (tolerance 0.00e+00)
Best objective 2.448314000000e+00, best bound 2.448314000000e+00, gap 0.0000%

User-callback calls 51, time in user-callback 0.00 sec

Gurobi 9.0.3 (linux64) logging started Wed May 29 20:48:14 2024

Gurobi Optimizer version 9.0.3 build v9.0.3rc0 (linux64)
Optimize a model with 444 rows, 292 columns and 1476 nonzeros
Model fingerprint: 0xf22cc19e
Variable types: 170 continuous, 122 integer (122 binary)
Coefficient statistics:
  Matrix range     [1e+00, 1e+00]
  Objective range  [9e-04, 6e-01]
  Bounds range     [1e+00, 1e+00]
  RHS range        [1e+00, 1e+00]
Found heuristic solution: objective 0.6678009
Presolve removed 17 rows and 17 columns
Presolve time: 0.00s
Presolved: 427 rows, 275 columns, 1452 nonzeros
Extracted 310 lazy constraints
Variable types: 160 continuous, 115 integer (115 binary)

Root relaxation: objective 2.458181e+00, 0 iterations, 0.00 seconds

    Nodes    |    Current Node    |     Objective Bounds      |     Work
 Expl Unexpl |  Obj  Depth IntInf | Incumbent    BestBd   Gap | It/Node Time

*    0     0               0       2.4483140    2.44831  0.00%     -    0s

Cutting planes:
  Lazy constraints: 21

Explored 0 nodes (49 simplex iterations) in 0.01 seconds
Thread count was 8 (of 8 available processors)

Solution count 2: 2.44831 0.667801 

Optimal solution found (tolerance 0.00e+00)
Best objective 2.448314000000e+00, best bound 2.448314000000e+00, gap 0.0000%

User-callback calls 51, time in user-callback 0.00 sec

Gurobi 9.0.3 (linux64) logging started Wed May 29 20:59:22 2024


Gurobi 9.0.3 (linux64) logging started Wed May 29 21:00:06 2024

Gurobi Optimizer version 9.0.3 build v9.0.3rc0 (linux64)
Optimize a model with 444 rows, 292 columns and 1476 nonzeros
Model fingerprint: 0xf22cc19e
Variable types: 170 continuous, 122 integer (122 binary)
Coefficient statistics:
  Matrix range     [1e+00, 1e+00]
  Objective range  [9e-04, 6e-01]
  Bounds range     [1e+00, 1e+00]
  RHS range        [1e+00, 1e+00]
Found heuristic solution: objective 0.6678009
Presolve removed 17 rows and 17 columns
Presolve time: 0.00s
Presolved: 427 rows, 275 columns, 1452 nonzeros
Extracted 310 lazy constraints
Variable types: 160 continuous, 115 integer (115 binary)

Root relaxation: objective 2.458181e+00, 0 iterations, 0.00 seconds

    Nodes    |    Current Node    |     Objective Bounds      |     Work
 Expl Unexpl |  Obj  Depth IntInf | Incumbent    BestBd   Gap | It/Node Time

*    0     0               0       2.4483140    2.44831  0.00%     -    0s

Cutting planes:
  Lazy constraints: 21

Explored 0 nodes (49 simplex iterations) in 0.01 seconds
Thread count was 8 (of 8 available processors)

Solution count 2: 2.44831 0.667801 

Optimal solution found (tolerance 0.00e+00)
Best objective 2.448314000000e+00, best bound 2.448314000000e+00, gap 0.0000%

User-callback calls 51, time in user-callback 0.00 sec

Gurobi 9.0.3 (linux64) logging started Wed May 29 21:02:12 2024

Gurobi Optimizer version 9.0.3 build v9.0.3rc0 (linux64)
Optimize a model with 444 rows, 292 columns and 1476 nonzeros
Model fingerprint: 0xf22cc19e
Variable types: 170 continuous, 122 integer (122 binary)
Coefficient statistics:
  Matrix range     [1e+00, 1e+00]
  Objective range  [9e-04, 6e-01]
  Bounds range     [1e+00, 1e+00]
  RHS range        [1e+00, 1e+00]
Found heuristic solution: objective 0.6678009
Presolve removed 17 rows and 17 columns
Presolve time: 0.00s
Presolved: 427 rows, 275 columns, 1452 nonzeros
Extracted 310 lazy constraints
Variable types: 160 continuous, 115 integer (115 binary)

Root relaxation: objective 2.458181e+00, 0 iterations, 0.00 seconds

    Nodes    |    Current Node    |     Objective Bounds      |     Work
 Expl Unexpl |  Obj  Depth IntInf | Incumbent    BestBd   Gap | It/Node Time

*    0     0               0       2.4483140    2.44831  0.00%     -    0s

Cutting planes:
  Lazy constraints: 21

Explored 0 nodes (49 simplex iterations) in 0.01 seconds
Thread count was 8 (of 8 available processors)

Solution count 2: 2.44831 0.667801 

Optimal solution found (tolerance 0.00e+00)
Best objective 2.448314000000e+00, best bound 2.448314000000e+00, gap 0.0000%

User-callback calls 51, time in user-callback 0.00 sec

Gurobi 9.0.3 (linux64) logging started Wed May 29 21:04:33 2024

Gurobi Optimizer version 9.0.3 build v9.0.3rc0 (linux64)
Optimize a model with 444 rows, 292 columns and 1476 nonzeros
Model fingerprint: 0xf22cc19e
Variable types: 170 continuous, 122 integer (122 binary)
Coefficient statistics:
  Matrix range     [1e+00, 1e+00]
  Objective range  [9e-04, 6e-01]
  Bounds range     [1e+00, 1e+00]
  RHS range        [1e+00, 1e+00]
Found heuristic solution: objective 0.6678009
Presolve removed 17 rows and 17 columns
Presolve time: 0.00s
Presolved: 427 rows, 275 columns, 1452 nonzeros
Extracted 310 lazy constraints
Variable types: 160 continuous, 115 integer (115 binary)

Root relaxation: objective 2.458181e+00, 0 iterations, 0.00 seconds

    Nodes    |    Current Node    |     Objective Bounds      |     Work
 Expl Unexpl |  Obj  Depth IntInf | Incumbent    BestBd   Gap | It/Node Time

*    0     0               0       2.4483140    2.44831  0.00%     -    0s

Cutting planes:
  Lazy constraints: 21

Explored 0 nodes (49 simplex iterations) in 0.01 seconds
Thread count was 8 (of 8 available processors)

Solution count 2: 2.44831 0.667801 

Optimal solution found (tolerance 0.00e+00)
Best objective 2.448314000000e+00, best bound 2.448314000000e+00, gap 0.0000%

User-callback calls 51, time in user-callback 0.00 sec

Gurobi 9.0.3 (linux64) logging started Wed May 29 21:06:04 2024

Gurobi Optimizer version 9.0.3 build v9.0.3rc0 (linux64)
Optimize a model with 444 rows, 292 columns and 1476 nonzeros
Model fingerprint: 0xf22cc19e
Variable types: 170 continuous, 122 integer (122 binary)
Coefficient statistics:
  Matrix range     [1e+00, 1e+00]
  Objective range  [9e-04, 6e-01]
  Bounds range     [1e+00, 1e+00]
  RHS range        [1e+00, 1e+00]
Found heuristic solution: objective 0.6678009
Presolve removed 17 rows and 17 columns
Presolve time: 0.00s
Presolved: 427 rows, 275 columns, 1452 nonzeros
Extracted 310 lazy constraints
Variable types: 160 continuous, 115 integer (115 binary)

Root relaxation: objective 2.458181e+00, 0 iterations, 0.00 seconds

    Nodes    |    Current Node    |     Objective Bounds      |     Work
 Expl Unexpl |  Obj  Depth IntInf | Incumbent    BestBd   Gap | It/Node Time

*    0     0               0       2.4483140    2.44831  0.00%     -    0s

Cutting planes:
  Lazy constraints: 21

Explored 0 nodes (49 simplex iterations) in 0.01 seconds
Thread count was 8 (of 8 available processors)

Solution count 2: 2.44831 0.667801 

Optimal solution found (tolerance 0.00e+00)
Best objective 2.448314000000e+00, best bound 2.448314000000e+00, gap 0.0000%

User-callback calls 51, time in user-callback 0.00 sec

Gurobi 9.0.3 (linux64) logging started Wed May 29 21:07:24 2024

Gurobi Optimizer version 9.0.3 build v9.0.3rc0 (linux64)
Optimize a model with 444 rows, 292 columns and 1476 nonzeros
Model fingerprint: 0xf22cc19e
Variable types: 170 continuous, 122 integer (122 binary)
Coefficient statistics:
  Matrix range     [1e+00, 1e+00]
  Objective range  [9e-04, 6e-01]
  Bounds range     [1e+00, 1e+00]
  RHS range        [1e+00, 1e+00]
Found heuristic solution: objective 0.6678009
Presolve removed 17 rows and 17 columns
Presolve time: 0.00s
Presolved: 427 rows, 275 columns, 1452 nonzeros
Extracted 310 lazy constraints
Variable types: 160 continuous, 115 integer (115 binary)

Root relaxation: objective 2.458181e+00, 0 iterations, 0.00 seconds

    Nodes    |    Current Node    |     Objective Bounds      |     Work
 Expl Unexpl |  Obj  Depth IntInf | Incumbent    BestBd   Gap | It/Node Time

*    0     0               0       2.4483140    2.44831  0.00%     -    0s

Cutting planes:
  Lazy constraints: 21

Explored 0 nodes (49 simplex iterations) in 0.01 seconds
Thread count was 8 (of 8 available processors)

Solution count 2: 2.44831 0.667801 

Optimal solution found (tolerance 0.00e+00)
Best objective 2.448314000000e+00, best bound 2.448314000000e+00, gap 0.0000%

User-callback calls 51, time in user-callback 0.00 sec

Gurobi 9.0.3 (linux64) logging started Wed May 29 21:16:16 2024

Gurobi Optimizer version 9.0.3 build v9.0.3rc0 (linux64)
Optimize a model with 444 rows, 292 columns and 1476 nonzeros
Model fingerprint: 0xafe280f7
Variable types: 170 continuous, 122 integer (122 binary)
Coefficient statistics:
  Matrix range     [1e+00, 1e+00]
  Objective range  [9e-03, 6e+00]
  Bounds range     [1e+00, 1e+00]
  RHS range        [1e+00, 1e+00]
Found heuristic solution: objective 42.4959701
Presolve removed 17 rows and 17 columns
Presolve time: 0.00s
Presolved: 427 rows, 275 columns, 1452 nonzeros
Extracted 310 lazy constraints
Variable types: 160 continuous, 115 integer (115 binary)

Root relaxation: objective 6.039977e+01, 0 iterations, 0.00 seconds

    Nodes    |    Current Node    |     Objective Bounds      |     Work
 Expl Unexpl |  Obj  Depth IntInf | Incumbent    BestBd   Gap | It/Node Time

*    0     0               0      60.3011012   60.30110  0.00%     -    0s

Cutting planes:
  Lazy constraints: 21

Explored 0 nodes (49 simplex iterations) in 0.01 seconds
Thread count was 8 (of 8 available processors)

Solution count 2: 60.3011 42.496 

Optimal solution found (tolerance 0.00e+00)
Best objective 6.030110116505e+01, best bound 6.030110116505e+01, gap 0.0000%

User-callback calls 51, time in user-callback 0.03 sec

Gurobi 9.0.3 (linux64) logging started Wed May 29 21:21:19 2024

Gurobi Optimizer version 9.0.3 build v9.0.3rc0 (linux64)
Optimize a model with 444 rows, 292 columns and 1476 nonzeros
Model fingerprint: 0xafe280f7
Variable types: 170 continuous, 122 integer (122 binary)
Coefficient statistics:
  Matrix range     [1e+00, 1e+00]
  Objective range  [9e-03, 6e+00]
  Bounds range     [1e+00, 1e+00]
  RHS range        [1e+00, 1e+00]
Found heuristic solution: objective 42.4959701
Presolve removed 17 rows and 17 columns
Presolve time: 0.00s
Presolved: 427 rows, 275 columns, 1452 nonzeros
Extracted 310 lazy constraints
Variable types: 160 continuous, 115 integer (115 binary)

Root relaxation: objective 6.039977e+01, 0 iterations, 0.00 seconds

    Nodes    |    Current Node    |     Objective Bounds      |     Work
 Expl Unexpl |  Obj  Depth IntInf | Incumbent    BestBd   Gap | It/Node Time

*    0     0               0      60.3011012   60.30110  0.00%     -    0s

Cutting planes:
  Lazy constraints: 21

Explored 0 nodes (49 simplex iterations) in 0.01 seconds
Thread count was 8 (of 8 available processors)

Solution count 2: 60.3011 42.496 

Optimal solution found (tolerance 0.00e+00)
Best objective 6.030110116505e+01, best bound 6.030110116505e+01, gap 0.0000%

User-callback calls 51, time in user-callback 0.00 sec

Gurobi 9.0.3 (linux64) logging started Wed May 29 21:24:58 2024

Gurobi Optimizer version 9.0.3 build v9.0.3rc0 (linux64)
Optimize a model with 444 rows, 292 columns and 1476 nonzeros
Model fingerprint: 0xafe280f7
Variable types: 170 continuous, 122 integer (122 binary)
Coefficient statistics:
  Matrix range     [1e+00, 1e+00]
  Objective range  [9e-03, 6e+00]
  Bounds range     [1e+00, 1e+00]
  RHS range        [1e+00, 1e+00]
Found heuristic solution: objective 42.4959701
Presolve removed 17 rows and 17 columns
Presolve time: 0.00s
Presolved: 427 rows, 275 columns, 1452 nonzeros
Extracted 310 lazy constraints
Variable types: 160 continuous, 115 integer (115 binary)

Root relaxation: objective 6.039977e+01, 0 iterations, 0.00 seconds

    Nodes    |    Current Node    |     Objective Bounds      |     Work
 Expl Unexpl |  Obj  Depth IntInf | Incumbent    BestBd   Gap | It/Node Time

*    0     0               0      60.3011012   60.30110  0.00%     -    0s

Cutting planes:
  Lazy constraints: 21

Explored 0 nodes (49 simplex iterations) in 0.01 seconds
Thread count was 8 (of 8 available processors)

Solution count 2: 60.3011 42.496 

Optimal solution found (tolerance 0.00e+00)
Best objective 6.030110116505e+01, best bound 6.030110116505e+01, gap 0.0000%

User-callback calls 51, time in user-callback 0.00 sec

Gurobi 9.0.3 (linux64) logging started Wed May 29 21:26:50 2024

Gurobi Optimizer version 9.0.3 build v9.0.3rc0 (linux64)
Optimize a model with 444 rows, 292 columns and 1476 nonzeros
Model fingerprint: 0xafe280f7
Variable types: 170 continuous, 122 integer (122 binary)
Coefficient statistics:
  Matrix range     [1e+00, 1e+00]
  Objective range  [9e-03, 6e+00]
  Bounds range     [1e+00, 1e+00]
  RHS range        [1e+00, 1e+00]
Found heuristic solution: objective 42.4959701
Presolve removed 17 rows and 17 columns
Presolve time: 0.00s
Presolved: 427 rows, 275 columns, 1452 nonzeros
Extracted 310 lazy constraints
Variable types: 160 continuous, 115 integer (115 binary)

Root relaxation: objective 6.039977e+01, 0 iterations, 0.00 seconds

    Nodes    |    Current Node    |     Objective Bounds      |     Work
 Expl Unexpl |  Obj  Depth IntInf | Incumbent    BestBd   Gap | It/Node Time

*    0     0               0      60.3011012   60.30110  0.00%     -    0s

Cutting planes:
  Lazy constraints: 21

Explored 0 nodes (49 simplex iterations) in 0.01 seconds
Thread count was 8 (of 8 available processors)

Solution count 2: 60.3011 42.496 

Optimal solution found (tolerance 0.00e+00)
Best objective 6.030110116505e+01, best bound 6.030110116505e+01, gap 0.0000%

User-callback calls 51, time in user-callback 0.00 sec

Gurobi 9.0.3 (linux64) logging started Wed May 29 21:30:42 2024

Gurobi Optimizer version 9.0.3 build v9.0.3rc0 (linux64)
Optimize a model with 444 rows, 292 columns and 1476 nonzeros
Model fingerprint: 0xafe280f7
Variable types: 170 continuous, 122 integer (122 binary)
Coefficient statistics:
  Matrix range     [1e+00, 1e+00]
  Objective range  [9e-03, 6e+00]
  Bounds range     [1e+00, 1e+00]
  RHS range        [1e+00, 1e+00]
Found heuristic solution: objective 42.4959701
Presolve removed 17 rows and 17 columns
Presolve time: 0.00s
Presolved: 427 rows, 275 columns, 1452 nonzeros
Extracted 310 lazy constraints
Variable types: 160 continuous, 115 integer (115 binary)

Root relaxation: objective 6.039977e+01, 0 iterations, 0.00 seconds

    Nodes    |    Current Node    |     Objective Bounds      |     Work
 Expl Unexpl |  Obj  Depth IntInf | Incumbent    BestBd   Gap | It/Node Time

*    0     0               0      60.3011012   60.30110  0.00%     -    0s

Cutting planes:
  Lazy constraints: 21

Explored 0 nodes (49 simplex iterations) in 0.01 seconds
Thread count was 8 (of 8 available processors)

Solution count 2: 60.3011 42.496 

Optimal solution found (tolerance 0.00e+00)
Best objective 6.030110116505e+01, best bound 6.030110116505e+01, gap 0.0000%

User-callback calls 51, time in user-callback 0.00 sec

Gurobi 9.0.3 (linux64) logging started Wed May 29 21:35:41 2024

Gurobi Optimizer version 9.0.3 build v9.0.3rc0 (linux64)
Optimize a model with 444 rows, 292 columns and 1476 nonzeros
Model fingerprint: 0xafe280f7
Variable types: 170 continuous, 122 integer (122 binary)
Coefficient statistics:
  Matrix range     [1e+00, 1e+00]
  Objective range  [9e-03, 6e+00]
  Bounds range     [1e+00, 1e+00]
  RHS range        [1e+00, 1e+00]
Found heuristic solution: objective 42.4959701
Presolve removed 17 rows and 17 columns
Presolve time: 0.00s
Presolved: 427 rows, 275 columns, 1452 nonzeros
Extracted 310 lazy constraints
Variable types: 160 continuous, 115 integer (115 binary)

Root relaxation: objective 6.039977e+01, 0 iterations, 0.00 seconds

    Nodes    |    Current Node    |     Objective Bounds      |     Work
 Expl Unexpl |  Obj  Depth IntInf | Incumbent    BestBd   Gap | It/Node Time

*    0     0               0      60.3011012   60.30110  0.00%     -    0s

Cutting planes:
  Lazy constraints: 21

Explored 0 nodes (49 simplex iterations) in 0.01 seconds
Thread count was 8 (of 8 available processors)

Solution count 2: 60.3011 42.496 

Optimal solution found (tolerance 0.00e+00)
Best objective 6.030110116505e+01, best bound 6.030110116505e+01, gap 0.0000%

User-callback calls 51, time in user-callback 0.00 sec

Gurobi 9.0.3 (linux64) logging started Wed May 29 21:38:55 2024

Gurobi Optimizer version 9.0.3 build v9.0.3rc0 (linux64)
Optimize a model with 444 rows, 292 columns and 1476 nonzeros
Model fingerprint: 0xafe280f7
Variable types: 170 continuous, 122 integer (122 binary)
Coefficient statistics:
  Matrix range     [1e+00, 1e+00]
  Objective range  [9e-03, 6e+00]
  Bounds range     [1e+00, 1e+00]
  RHS range        [1e+00, 1e+00]
Found heuristic solution: objective 42.4959701
Presolve removed 17 rows and 17 columns
Presolve time: 0.00s
Presolved: 427 rows, 275 columns, 1452 nonzeros
Extracted 310 lazy constraints
Variable types: 160 continuous, 115 integer (115 binary)

Root relaxation: objective 6.039977e+01, 0 iterations, 0.00 seconds

    Nodes    |    Current Node    |     Objective Bounds      |     Work
 Expl Unexpl |  Obj  Depth IntInf | Incumbent    BestBd   Gap | It/Node Time

*    0     0               0      60.3011012   60.30110  0.00%     -    0s

Cutting planes:
  Lazy constraints: 21

Explored 0 nodes (49 simplex iterations) in 0.01 seconds
Thread count was 8 (of 8 available processors)

Solution count 2: 60.3011 42.496 

Optimal solution found (tolerance 0.00e+00)
Best objective 6.030110116505e+01, best bound 6.030110116505e+01, gap 0.0000%

User-callback calls 51, time in user-callback 0.00 sec

Gurobi 9.0.3 (linux64) logging started Wed May 29 21:45:24 2024

Gurobi Optimizer version 9.0.3 build v9.0.3rc0 (linux64)
Optimize a model with 444 rows, 292 columns and 1476 nonzeros
Model fingerprint: 0xafe280f7
Variable types: 170 continuous, 122 integer (122 binary)
Coefficient statistics:
  Matrix range     [1e+00, 1e+00]
  Objective range  [9e-03, 6e+00]
  Bounds range     [1e+00, 1e+00]
  RHS range        [1e+00, 1e+00]
Found heuristic solution: objective 42.4959701
Presolve removed 17 rows and 17 columns
Presolve time: 0.00s
Presolved: 427 rows, 275 columns, 1452 nonzeros
Extracted 310 lazy constraints
Variable types: 160 continuous, 115 integer (115 binary)

Root relaxation: objective 6.039977e+01, 0 iterations, 0.00 seconds

    Nodes    |    Current Node    |     Objective Bounds      |     Work
 Expl Unexpl |  Obj  Depth IntInf | Incumbent    BestBd   Gap | It/Node Time

*    0     0               0      60.3011012   60.30110  0.00%     -    0s

Cutting planes:
  Lazy constraints: 21

Explored 0 nodes (49 simplex iterations) in 0.01 seconds
Thread count was 8 (of 8 available processors)

Solution count 2: 60.3011 42.496 

Optimal solution found (tolerance 0.00e+00)
Best objective 6.030110116505e+01, best bound 6.030110116505e+01, gap 0.0000%

User-callback calls 51, time in user-callback 0.00 sec

Gurobi 9.0.3 (linux64) logging started Wed May 29 21:46:56 2024

Gurobi Optimizer version 9.0.3 build v9.0.3rc0 (linux64)
Optimize a model with 444 rows, 292 columns and 1476 nonzeros
Model fingerprint: 0xafe280f7
Variable types: 170 continuous, 122 integer (122 binary)
Coefficient statistics:
  Matrix range     [1e+00, 1e+00]
  Objective range  [9e-03, 6e+00]
  Bounds range     [1e+00, 1e+00]
  RHS range        [1e+00, 1e+00]
Found heuristic solution: objective 42.4959701
Presolve removed 17 rows and 17 columns
Presolve time: 0.00s
Presolved: 427 rows, 275 columns, 1452 nonzeros
Extracted 310 lazy constraints
Variable types: 160 continuous, 115 integer (115 binary)

Root relaxation: objective 6.039977e+01, 0 iterations, 0.00 seconds

    Nodes    |    Current Node    |     Objective Bounds      |     Work
 Expl Unexpl |  Obj  Depth IntInf | Incumbent    BestBd   Gap | It/Node Time

*    0     0               0      60.3011012   60.30110  0.00%     -    0s

Cutting planes:
  Lazy constraints: 21

Explored 0 nodes (49 simplex iterations) in 0.01 seconds
Thread count was 8 (of 8 available processors)

Solution count 2: 60.3011 42.496 

Optimal solution found (tolerance 0.00e+00)
Best objective 6.030110116505e+01, best bound 6.030110116505e+01, gap 0.0000%

User-callback calls 51, time in user-callback 0.00 sec

Gurobi 9.0.3 (linux64) logging started Wed May 29 21:47:56 2024

Gurobi Optimizer version 9.0.3 build v9.0.3rc0 (linux64)
Optimize a model with 444 rows, 292 columns and 1476 nonzeros
Model fingerprint: 0xafe280f7
Variable types: 170 continuous, 122 integer (122 binary)
Coefficient statistics:
  Matrix range     [1e+00, 1e+00]
  Objective range  [9e-03, 6e+00]
  Bounds range     [1e+00, 1e+00]
  RHS range        [1e+00, 1e+00]
Found heuristic solution: objective 42.4959701
Presolve removed 17 rows and 17 columns
Presolve time: 0.00s
Presolved: 427 rows, 275 columns, 1452 nonzeros
Extracted 310 lazy constraints
Variable types: 160 continuous, 115 integer (115 binary)

Root relaxation: objective 6.039977e+01, 0 iterations, 0.00 seconds

    Nodes    |    Current Node    |     Objective Bounds      |     Work
 Expl Unexpl |  Obj  Depth IntInf | Incumbent    BestBd   Gap | It/Node Time

*    0     0               0      60.3011012   60.30110  0.00%     -    0s

Cutting planes:
  Lazy constraints: 21

Explored 0 nodes (49 simplex iterations) in 0.01 seconds
Thread count was 8 (of 8 available processors)

Solution count 2: 60.3011 42.496 

Optimal solution found (tolerance 0.00e+00)
Best objective 6.030110116505e+01, best bound 6.030110116505e+01, gap 0.0000%

User-callback calls 51, time in user-callback 0.00 sec
